
  32    4
  10   10   10   10

   0   0   0   0   0   2 2 4 
   2  10  10  10  10   1 3 
   8  10  10  10  10   3 8 6 5 
   6  10  10  10  10   2 6 5 
   1  10  10  10  10   1 7 
   2  10  10  10  10   1 7 
   3  10  10  10  10   4 14 13 10 9 
   2  10  10  10  10   2 11 10 
   5  10  10  10  10   3 18 17 11 
   8  10  10  10  10   3 18 17 15 
   5  10  10  10  10   1 12 
   3  10  10  10  10   2 21 15 
   9  10  10  10  10   2 21 15 
   5  10  10  10  10   2 22 18 
   5  10  10  10  10   1 16 
   6  10  10  10  10   2 22 19 
   4  10  10  10  10   2 21 20 
   5  10  10  10  10   1 19 
   1  10  10  10  10   1 20 
   7  10  10  10  10   4 31 25 24 23 
  10  10  10  10  10   4 31 25 24 23 
   9  10  10  10  10   4 31 27 26 25 
   7  10  10  10  10   2 27 26 
   1  10  10  10  10   2 28 26 
   5  10  10  10  10   2 30 28 
   4  10  10  10  10   2 30 29 
   1  10  10  10  10   1 28 
   1  10  10  10  10   1 29 
   6  10  10  10  10   1 32
   2  10  10  10  10   1 32
   5  10  10  10  10   1 32
   0   0   0   0   0   0 
